c Standarized MaxSat Instance
c{
c "sha1sum": "c933e69ae6c4b400607abd68884b495b638464bd",
c "nvars": 42,
c "ncls": 418,
c "nhards": 0,
c "nhard_len_stats":
c    { "min": 0, "max": 0, "ave": 0.00,
c      "stddev": 0.00 },
c "nsofts": 418,
c "nsoft_len_stats":
c    { "min": 2, "max": 2, "ave": 2.00,
c      "stddev": 0.00 },
c "nsoft_wts": 10,
c "soft_wt_stats":
c    { "min": 1, "max": 10, "ave": 5.83,
c      "stddev": 2.99 }
c}
c------------------------------------------------------------
c File  p_hat700-1.clq                
c
c Source: P. Soriano and M. Gendreau at  patrick@crt.umontreal.ca
c
c Reference: p-hat graphs are generated with the p-hat generator
c 	      which is a generalization of the classical uniform
c 	      random graph generator.
c 	      Graphs generated with p-hat have wider node degree spread
c 	      and larger cliques than uniform graphs.
c
c NOTE: September 23, 1993 Corrected corrupted file at DIMACS.
c
c
c Generation parameters: 
c 	n =    700 a =  0.00  b =  0.50  Expected density =  0.25
c	Seed =      16313       Real density =  0.249
c
p wcnf 42 418 2439
9 1 4 0
9 -1 -4 0
4 1 5 0
4 -1 -5 0
8 1 13 0
8 -1 -13 0
8 1 19 0
8 -1 -19 0
10 1 20 0
10 -1 -20 0
2 1 22 0
2 -1 -22 0
4 1 27 0
4 -1 -27 0
8 1 31 0
8 -1 -31 0
3 1 32 0
3 -1 -32 0
6 1 34 0
6 -1 -34 0
5 1 35 0
5 -1 -35 0
7 1 39 0
7 -1 -39 0
4 2 23 0
4 -2 -23 0
6 2 28 0
6 -2 -28 0
10 2 32 0
10 -2 -32 0
10 2 35 0
10 -2 -35 0
7 3 4 0
7 -3 -4 0
8 3 10 0
8 -3 -10 0
2 3 21 0
2 -3 -21 0
7 3 25 0
7 -3 -25 0
1 3 29 0
1 -3 -29 0
3 3 31 0
3 -3 -31 0
2 4 7 0
2 -4 -7 0
9 4 9 0
9 -4 -9 0
2 4 10 0
2 -4 -10 0
5 4 14 0
5 -4 -14 0
2 4 16 0
2 -4 -16 0
2 4 20 0
2 -4 -20 0
10 4 24 0
10 -4 -24 0
3 4 26 0
3 -4 -26 0
6 4 28 0
6 -4 -28 0
9 4 29 0
9 -4 -29 0
7 4 30 0
7 -4 -30 0
3 4 35 0
3 -4 -35 0
7 4 40 0
7 -4 -40 0
6 5 7 0
6 -5 -7 0
5 5 10 0
5 -5 -10 0
10 5 14 0
10 -5 -14 0
3 5 16 0
3 -5 -16 0
8 5 18 0
8 -5 -18 0
6 5 21 0
6 -5 -21 0
8 5 24 0
8 -5 -24 0
5 5 26 0
5 -5 -26 0
9 5 27 0
9 -5 -27 0
3 5 29 0
3 -5 -29 0
4 5 30 0
4 -5 -30 0
9 5 31 0
9 -5 -31 0
10 5 35 0
10 -5 -35 0
1 5 36 0
1 -5 -36 0
10 5 39 0
10 -5 -39 0
6 5 40 0
6 -5 -40 0
1 5 42 0
1 -5 -42 0
2 6 7 0
2 -6 -7 0
7 6 16 0
7 -6 -16 0
9 6 18 0
9 -6 -18 0
4 6 24 0
4 -6 -24 0
1 6 25 0
1 -6 -25 0
1 6 28 0
1 -6 -28 0
5 6 34 0
5 -6 -34 0
1 6 35 0
1 -6 -35 0
3 6 39 0
3 -6 -39 0
10 6 40 0
10 -6 -40 0
10 7 10 0
10 -7 -10 0
9 7 14 0
9 -7 -14 0
3 7 16 0
3 -7 -16 0
6 7 24 0
6 -7 -24 0
4 7 27 0
4 -7 -27 0
8 7 32 0
8 -7 -32 0
6 7 42 0
6 -7 -42 0
7 8 12 0
7 -8 -12 0
6 8 14 0
6 -8 -14 0
1 8 20 0
1 -8 -20 0
5 8 28 0
5 -8 -28 0
10 8 31 0
10 -8 -31 0
10 8 41 0
10 -8 -41 0
8 9 14 0
8 -9 -14 0
3 9 32 0
3 -9 -32 0
8 9 42 0
8 -9 -42 0
7 10 15 0
7 -10 -15 0
4 10 31 0
4 -10 -31 0
7 10 34 0
7 -10 -34 0
2 10 37 0
2 -10 -37 0
5 11 16 0
5 -11 -16 0
9 11 23 0
9 -11 -23 0
9 11 24 0
9 -11 -24 0
4 11 25 0
4 -11 -25 0
3 11 28 0
3 -11 -28 0
9 11 29 0
9 -11 -29 0
4 11 34 0
4 -11 -34 0
7 11 35 0
7 -11 -35 0
10 11 42 0
10 -11 -42 0
6 12 16 0
6 -12 -16 0
7 12 18 0
7 -12 -18 0
9 12 28 0
9 -12 -28 0
5 12 32 0
5 -12 -32 0
10 12 33 0
10 -12 -33 0
4 12 34 0
4 -12 -34 0
9 12 36 0
9 -12 -36 0
7 12 37 0
7 -12 -37 0
10 12 38 0
10 -12 -38 0
5 12 41 0
5 -12 -41 0
3 13 16 0
3 -13 -16 0
10 13 18 0
10 -13 -18 0
10 13 32 0
10 -13 -32 0
2 14 15 0
2 -14 -15 0
9 14 20 0
9 -14 -20 0
7 14 21 0
7 -14 -21 0
5 14 24 0
5 -14 -24 0
7 14 33 0
7 -14 -33 0
3 14 34 0
3 -14 -34 0
8 14 35 0
8 -14 -35 0
4 14 40 0
4 -14 -40 0
5 15 17 0
5 -15 -17 0
3 15 18 0
3 -15 -18 0
2 15 20 0
2 -15 -20 0
3 15 22 0
3 -15 -22 0
6 15 24 0
6 -15 -24 0
5 15 26 0
5 -15 -26 0
2 15 30 0
2 -15 -30 0
10 15 32 0
10 -15 -32 0
2 15 33 0
2 -15 -33 0
2 15 37 0
2 -15 -37 0
5 15 41 0
5 -15 -41 0
8 16 19 0
8 -16 -19 0
10 16 20 0
10 -16 -20 0
10 16 23 0
10 -16 -23 0
7 16 24 0
7 -16 -24 0
4 16 27 0
4 -16 -27 0
8 16 32 0
8 -16 -32 0
4 16 35 0
4 -16 -35 0
3 16 37 0
3 -16 -37 0
3 16 38 0
3 -16 -38 0
6 16 42 0
6 -16 -42 0
3 17 18 0
3 -17 -18 0
2 17 21 0
2 -17 -21 0
8 17 22 0
8 -17 -22 0
2 17 32 0
2 -17 -32 0
8 17 34 0
8 -17 -34 0
2 17 36 0
2 -17 -36 0
8 17 41 0
8 -17 -41 0
1 18 20 0
1 -18 -20 0
10 18 21 0
10 -18 -21 0
1 18 23 0
1 -18 -23 0
6 18 24 0
6 -18 -24 0
2 18 31 0
2 -18 -31 0
3 18 39 0
3 -18 -39 0
8 18 42 0
8 -18 -42 0
8 19 21 0
8 -19 -21 0
7 19 22 0
7 -19 -22 0
10 19 23 0
10 -19 -23 0
7 19 25 0
7 -19 -25 0
8 19 31 0
8 -19 -31 0
1 19 32 0
1 -19 -32 0
2 19 35 0
2 -19 -35 0
6 19 39 0
6 -19 -39 0
1 19 40 0
1 -19 -40 0
1 20 22 0
1 -20 -22 0
3 20 23 0
3 -20 -23 0
5 20 24 0
5 -20 -24 0
9 20 28 0
9 -20 -28 0
6 20 29 0
6 -20 -29 0
8 20 40 0
8 -20 -40 0
1 20 41 0
1 -20 -41 0
2 21 22 0
2 -21 -22 0
10 21 24 0
10 -21 -24 0
3 21 40 0
3 -21 -40 0
9 21 41 0
9 -21 -41 0
2 22 24 0
2 -22 -24 0
10 22 34 0
10 -22 -34 0
1 22 38 0
1 -22 -38 0
9 22 40 0
9 -22 -40 0
1 22 41 0
1 -22 -41 0
1 22 42 0
1 -22 -42 0
10 23 24 0
10 -23 -24 0
6 23 25 0
6 -23 -25 0
2 23 29 0
2 -23 -29 0
2 23 36 0
2 -23 -36 0
4 24 28 0
4 -24 -28 0
10 24 32 0
10 -24 -32 0
9 24 36 0
9 -24 -36 0
4 24 42 0
4 -24 -42 0
6 25 32 0
6 -25 -32 0
6 26 29 0
6 -26 -29 0
5 26 35 0
5 -26 -35 0
7 26 42 0
7 -26 -42 0
1 27 29 0
1 -27 -29 0
6 27 32 0
6 -27 -32 0
8 28 30 0
8 -28 -30 0
4 28 34 0
4 -28 -34 0
10 28 35 0
10 -28 -35 0
6 28 36 0
6 -28 -36 0
9 28 42 0
9 -28 -42 0
8 29 35 0
8 -29 -35 0
7 29 39 0
7 -29 -39 0
1 30 39 0
1 -30 -39 0
8 31 32 0
8 -31 -32 0
9 31 34 0
9 -31 -34 0
10 32 33 0
10 -32 -33 0
9 32 37 0
9 -32 -37 0
9 32 39 0
9 -32 -39 0
10 33 40 0
10 -33 -40 0
8 34 40 0
8 -34 -40 0
10 34 41 0
10 -34 -41 0
10 35 37 0
10 -35 -37 0
7 35 38 0
7 -35 -38 0
5 35 39 0
5 -35 -39 0
2 36 38 0
2 -36 -38 0
9 39 41 0
9 -39 -41 0
9 41 42 0
9 -41 -42 0
